50
9004

549 434
393 101
112 872
450 193
663 595
654 312
150 74
473 694
493 376
369 863
139 951
329 151
209 109
839 831
614 19
469 878
244 294
565 635
306 114
112 290
425 16
264 329
789 588
93 850
25 725
818 595
856 533
717 709
712 228
699 750
698 38
541 249
542 652
278 286
937 649
882 426
481 548
545 11
716 435
852 856
750 835
864 931
281 863
944 769
214 327
207 632
242 785
389 590
160 378
710 2
